s 求解结果: 1
t 1043
v 1 2 3 -4 -5 6 7 8 9 -10 11 -12 -13 16 -17 -18 20 -22 23 24 -25 26 -27 28 29 -30 31 32 -33 34 35 36 37 39 40 41 42 -43 -44 45 46 47 48 49 -51 -52 53 54 55 56 57 -59 -60 61 63 64 67 68 69 70 71 72 73 74 76 77 78 80 81 82 -84 85 86 87 88 89 90 -91 94 95 -98 100 